(set-logic QF_NRA)
(set-info :source |Benchmarks generated from hycomp (https://es-static.fbk.eu/tools/hycomp/). BMC instances of non-linear hybrid automata taken from: Alessandro Cimatti, Sergio Mover, Stefano Tonetta, A quantifier-free SMT encoding of non-linear hybrid automata, FMCAD 2012 and Alessandro Cimatti, Sergio Mover, Stefano Tonetta, Quantier-free encoding of invariants for Hybrid Systems, Formal Methods in System Design. This instance solves a BMC problem of depth 2 and uses the encoding obtained with quantifier elimination using redlog encoding. Contacts: Sergio Mover (mover@fbk.eu), Stefano Tonetta (tonettas@fbk.eu), Alessandro Cimatti (cimatti@fbk.eu).|)
(set-info :smt-lib-version 2.0)
(set-info :category "industrial")
(set-info :status unsat)
;; MathSAT API call trace
;; generated on Mon Mar 19 10:38:47 2012
(declare-fun b.EVENT.0__AT0 () Bool)
(declare-fun b.time__AT1 () Real)
(declare-fun b.y__AT0 () Real)
(declare-fun b.counter.0__AT0 () Bool)
(declare-fun b.counter.2__AT0 () Bool)
(declare-fun b.counter.1__AT0 () Bool)
(declare-fun b.event_is_timed__AT2 () Bool)
(declare-fun b.counter.1__AT1 () Bool)
(declare-fun b.counter.2__AT1 () Bool)
(declare-fun speed_loss__AT0 () Real)
(declare-fun b.time__AT2 () Real)
(declare-fun b.speed_y__AT0 () Real)
(declare-fun b.delta__AT2 () Real)
(declare-fun b.event_is_timed__AT1 () Bool)
(declare-fun b.counter.0__AT2 () Bool)
(declare-fun b.EVENT.0__AT2 () Bool)
(declare-fun b.event_is_timed__AT0 () Bool)
(declare-fun b.y__AT2 () Real)
(declare-fun b.counter.1__AT2 () Bool)
(declare-fun b.EVENT.1__AT2 () Bool)
(declare-fun b.counter.3__AT1 () Bool)
(declare-fun b.y__AT1 () Real)
(declare-fun b.counter.0__AT1 () Bool)
(declare-fun b.counter.3__AT0 () Bool)
(declare-fun b.delta__AT1 () Real)
(declare-fun b.EVENT.0__AT1 () Bool)
(declare-fun b.EVENT.1__AT0 () Bool)
(declare-fun b.delta__AT0 () Real)
(declare-fun b.speed_y__AT2 () Real)
(declare-fun b.EVENT.1__AT1 () Bool)
(declare-fun b.counter.2__AT2 () Bool)
(declare-fun b.counter.3__AT2 () Bool)
(declare-fun b.speed_y__AT1 () Real)
(declare-fun b.time__AT0 () Real)
(assert (let ((.def_459 (* 49.0 b.delta__AT2)))
(let ((.def_460 (* b.delta__AT2 .def_459)))
(let ((.def_461 (* (- 1.0) .def_460)))
(let ((.def_457 (* 10.0 b.speed_y__AT2)))
(let ((.def_458 (* b.delta__AT2 .def_457)))
(let ((.def_462 (+ .def_458 .def_461)))
(let ((.def_463 (* 10.0 b.y__AT2)))
(let ((.def_465 (+ .def_463 .def_462)))
(let ((.def_466 (<= 0.0 .def_465)))
(let ((.def_493 (not .def_466)))
(let ((.def_477 (* (- 49.0) b.delta__AT2)))
(let ((.def_468 (* 5.0 b.speed_y__AT2)))
(let ((.def_478 (+ .def_468 .def_477)))
(let ((.def_479 (<= 0.0 .def_478)))
(let ((.def_494 (and .def_479 .def_493)))
(let ((.def_489 (<= b.speed_y__AT2 0.0 )))
(let ((.def_441 (<= 0.0 b.y__AT2)))
(let ((.def_492 (or .def_441 .def_489)))
(let ((.def_495 (or .def_492 .def_494)))
(let ((.def_488 (<= b.y__AT2 0.0 )))
(let ((.def_490 (and .def_488 .def_489)))
(let ((.def_483 (<= .def_478 0.0 )))
(let ((.def_484 (not .def_483)))
(let ((.def_481 (= .def_465 0.0 )))
(let ((.def_482 (not .def_481)))
(let ((.def_485 (or .def_482 .def_484)))
(let ((.def_480 (or .def_466 .def_479)))
(let ((.def_486 (and .def_480 .def_485)))
(let ((.def_469 (* b.speed_y__AT2 .def_468)))
(let ((.def_470 (* 98.0 b.y__AT2)))
(let ((.def_472 (+ .def_470 .def_469)))
(let ((.def_475 (<= .def_472 0.0 )))
(let ((.def_476 (not .def_475)))
(let ((.def_487 (or .def_476 .def_486)))
(let ((.def_491 (or .def_487 .def_490)))
(let ((.def_496 (and .def_491 .def_495)))
(let ((.def_473 (<= 0.0 .def_472)))
(let ((.def_474 (not .def_473)))
(let ((.def_497 (or .def_474 .def_496)))
(let ((.def_455 (<= 0.0 b.delta__AT2)))
(let ((.def_456 (not .def_455)))
(let ((.def_467 (or .def_456 .def_466)))
(let ((.def_498 (and .def_467 .def_497)))
(let ((.def_438 (not b.EVENT.0__AT2)))
(let ((.def_436 (not b.EVENT.1__AT2)))
(let ((.def_452 (and .def_436 .def_438)))
(let ((.def_453 (not .def_452)))
(let ((.def_499 (or .def_453 .def_498)))
(let ((.def_145 (not b.counter.0__AT1)))
(let ((.def_133 (not b.counter.1__AT1)))
(let ((.def_445 (and .def_133 .def_145)))
(let ((.def_448 (or b.counter.3__AT1 .def_445)))
(let ((.def_140 (not b.counter.2__AT1)))
(let ((.def_446 (and .def_140 .def_445)))
(let ((.def_155 (not b.counter.3__AT1)))
(let ((.def_447 (or .def_155 .def_446)))
(let ((.def_449 (and .def_447 .def_448)))
(let ((.def_60 (<= speed_loss__AT0 (/ 1 2))))
(let ((.def_57 (<= (/ 1 10) speed_loss__AT0)))
(let ((.def_61 (and .def_57 .def_60)))
(let ((.def_442 (and .def_61 .def_441)))
(let ((.def_439 (or .def_436 .def_438)))
(let ((.def_6 (not b.counter.0__AT2)))
(let ((.def_4 (not b.counter.1__AT2)))
(let ((.def_429 (or .def_4 .def_6)))
(let ((.def_433 (or b.counter.3__AT2 .def_429)))
(let ((.def_430 (or b.counter.2__AT2 .def_429)))
(let ((.def_9 (not b.counter.2__AT2)))
(let ((.def_428 (or .def_6 .def_9)))
(let ((.def_431 (and .def_428 .def_430)))
(let ((.def_12 (not b.counter.3__AT2)))
(let ((.def_432 (or .def_12 .def_431)))
(let ((.def_434 (and .def_432 .def_433)))
(let ((.def_440 (and .def_434 .def_439)))
(let ((.def_443 (and .def_440 .def_442)))
(let ((.def_270 (<= 0.0 b.delta__AT1)))
(let ((.def_255 (not b.EVENT.0__AT1)))
(let ((.def_253 (not b.EVENT.1__AT1)))
(let ((.def_267 (and .def_253 .def_255)))
(let ((.def_268 (not .def_267)))
(let ((.def_424 (or .def_268 .def_270)))
(let ((.def_425 (or b.EVENT.1__AT1 .def_424)))
(let ((.def_362 (= b.counter.0__AT2 b.counter.0__AT1)))
(let ((.def_360 (= b.counter.1__AT2 b.counter.1__AT1)))
(let ((.def_358 (= b.counter.2__AT2 b.counter.2__AT1)))
(let ((.def_357 (= b.counter.3__AT2 b.counter.3__AT1)))
(let ((.def_359 (and .def_357 .def_358)))
(let ((.def_361 (and .def_359 .def_360)))
(let ((.def_363 (and .def_361 .def_362)))
(let ((.def_421 (or .def_268 .def_363)))
(let ((.def_422 (or b.EVENT.1__AT1 .def_421)))
(let ((.def_413 (* (- 5.0) b.speed_y__AT2)))
(let ((.def_292 (* (- 49.0) b.delta__AT1)))
(let ((.def_414 (+ .def_292 .def_413)))
(let ((.def_283 (* 5.0 b.speed_y__AT1)))
(let ((.def_415 (+ .def_283 .def_414)))
(let ((.def_416 (= .def_415 0.0 )))
(let ((.def_404 (* b.speed_y__AT1 b.delta__AT1)))
(let ((.def_405 (* 10.0 .def_404)))
(let ((.def_402 (* b.delta__AT1 b.delta__AT1)))
(let ((.def_403 (* (- 49.0) .def_402)))
(let ((.def_406 (+ .def_403 .def_405)))
(let ((.def_407 (* (- 10.0) b.y__AT2)))
(let ((.def_410 (+ .def_407 .def_406)))
(let ((.def_278 (* 10.0 b.y__AT1)))
(let ((.def_411 (+ .def_278 .def_410)))
(let ((.def_412 (= .def_411 0.0 )))
(let ((.def_417 (and .def_412 .def_416)))
(let ((.def_418 (or .def_268 .def_417)))
(let ((.def_368 (= b.y__AT1 b.y__AT2)))
(let ((.def_356 (= b.speed_y__AT1 b.speed_y__AT2)))
(let ((.def_399 (and .def_356 .def_368)))
(let ((.def_396 (= b.delta__AT1 0.0 )))
(let ((.def_397 (and .def_267 .def_396)))
(let ((.def_398 (not .def_397)))
(let ((.def_400 (or .def_398 .def_399)))
(let ((.def_401 (or b.EVENT.1__AT1 .def_400)))
(let ((.def_419 (and .def_401 .def_418)))
(let ((.def_378 (= b.time__AT1 b.time__AT2)))
(let ((.def_390 (and .def_368 .def_378)))
(let ((.def_391 (and .def_356 .def_390)))
(let ((.def_392 (and .def_363 .def_391)))
(let ((.def_393 (or .def_253 .def_392)))
(let ((.def_381 (* (- 1.0) b.time__AT2)))
(let ((.def_384 (+ b.delta__AT1 .def_381)))
(let ((.def_385 (+ b.time__AT1 .def_384)))
(let ((.def_386 (= .def_385 0.0 )))
(let ((.def_387 (or .def_268 .def_386)))
(let ((.def_388 (or b.EVENT.1__AT1 .def_387)))
(let ((.def_379 (or .def_267 .def_378)))
(let ((.def_380 (or b.EVENT.1__AT1 .def_379)))
(let ((.def_389 (and .def_380 .def_388)))
(let ((.def_394 (and .def_389 .def_393)))
(let ((.def_374 (= .def_268 b.event_is_timed__AT2)))
(let ((.def_372 (= b.event_is_timed__AT1 .def_267)))
(let ((.def_375 (and .def_372 .def_374)))
(let ((.def_364 (and .def_356 .def_363)))
(let ((.def_317 (<= 0.0 b.speed_y__AT1)))
(let ((.def_318 (not .def_317)))
(let ((.def_316 (= b.y__AT1 0.0 )))
(let ((.def_319 (and .def_316 .def_318)))
(let ((.def_365 (or .def_319 .def_364)))
(let ((.def_333 (or .def_6 b.counter.0__AT1)))
(let ((.def_332 (or b.counter.0__AT2 .def_145)))
(let ((.def_334 (and .def_332 .def_333)))
(let ((.def_335 (and .def_4 .def_334)))
(let ((.def_336 (or b.counter.1__AT1 .def_335)))
(let ((.def_331 (or b.counter.1__AT2 .def_133)))
(let ((.def_337 (and .def_331 .def_336)))
(let ((.def_348 (and .def_9 .def_337)))
(let ((.def_349 (or b.counter.2__AT1 .def_348)))
(let ((.def_343 (and .def_4 .def_145)))
(let ((.def_344 (or b.counter.1__AT1 .def_343)))
(let ((.def_345 (and .def_331 .def_344)))
(let ((.def_346 (and b.counter.2__AT2 .def_345)))
(let ((.def_347 (or .def_140 .def_346)))
(let ((.def_350 (and .def_347 .def_349)))
(let ((.def_351 (and b.counter.3__AT2 .def_350)))
(let ((.def_352 (or b.counter.3__AT1 .def_351)))
(let ((.def_338 (and b.counter.2__AT2 .def_337)))
(let ((.def_339 (or b.counter.2__AT1 .def_338)))
(let ((.def_327 (or b.counter.1__AT2 b.counter.1__AT1)))
(let ((.def_325 (and .def_4 b.counter.0__AT2)))
(let ((.def_326 (or .def_133 .def_325)))
(let ((.def_328 (and .def_326 .def_327)))
(let ((.def_329 (and .def_9 .def_328)))
(let ((.def_330 (or .def_140 .def_329)))
(let ((.def_340 (and .def_330 .def_339)))
(let ((.def_341 (and .def_12 .def_340)))
(let ((.def_342 (or .def_155 .def_341)))
(let ((.def_353 (and .def_342 .def_352)))
(let ((.def_321 (* (- 1.0) b.speed_y__AT1)))
(let ((.def_127 (* (- 1.0) speed_loss__AT0)))
(let ((.def_128 (+ 1.0 .def_127)))
(let ((.def_322 (* .def_128 .def_321)))
(let ((.def_324 (= .def_322 b.speed_y__AT2)))
(let ((.def_354 (and .def_324 .def_353)))
(let ((.def_320 (not .def_319)))
(let ((.def_355 (or .def_320 .def_354)))
(let ((.def_366 (and .def_355 .def_365)))
(let ((.def_369 (and .def_366 .def_368)))
(let ((.def_370 (or .def_267 .def_369)))
(let ((.def_371 (or b.EVENT.1__AT1 .def_370)))
(let ((.def_376 (and .def_371 .def_375)))
(let ((.def_395 (and .def_376 .def_394)))
(let ((.def_420 (and .def_395 .def_419)))
(let ((.def_423 (and .def_420 .def_422)))
(let ((.def_426 (and .def_423 .def_425)))
(let ((.def_427 (and .def_253 .def_426)))
(let ((.def_444 (and .def_427 .def_443)))
(let ((.def_450 (and .def_444 .def_449)))
(let ((.def_274 (* 49.0 b.delta__AT1)))
(let ((.def_275 (* b.delta__AT1 .def_274)))
(let ((.def_276 (* (- 1.0) .def_275)))
(let ((.def_272 (* 10.0 b.speed_y__AT1)))
(let ((.def_273 (* b.delta__AT1 .def_272)))
(let ((.def_277 (+ .def_273 .def_276)))
(let ((.def_280 (+ .def_278 .def_277)))
(let ((.def_281 (<= 0.0 .def_280)))
(let ((.def_308 (not .def_281)))
(let ((.def_293 (+ .def_283 .def_292)))
(let ((.def_294 (<= 0.0 .def_293)))
(let ((.def_309 (and .def_294 .def_308)))
(let ((.def_304 (<= b.speed_y__AT1 0.0 )))
(let ((.def_258 (<= 0.0 b.y__AT1)))
(let ((.def_307 (or .def_258 .def_304)))
(let ((.def_310 (or .def_307 .def_309)))
(let ((.def_303 (<= b.y__AT1 0.0 )))
(let ((.def_305 (and .def_303 .def_304)))
(let ((.def_298 (<= .def_293 0.0 )))
(let ((.def_299 (not .def_298)))
(let ((.def_296 (= .def_280 0.0 )))
(let ((.def_297 (not .def_296)))
(let ((.def_300 (or .def_297 .def_299)))
(let ((.def_295 (or .def_281 .def_294)))
(let ((.def_301 (and .def_295 .def_300)))
(let ((.def_284 (* b.speed_y__AT1 .def_283)))
(let ((.def_285 (* 98.0 b.y__AT1)))
(let ((.def_287 (+ .def_285 .def_284)))
(let ((.def_290 (<= .def_287 0.0 )))
(let ((.def_291 (not .def_290)))
(let ((.def_302 (or .def_291 .def_301)))
(let ((.def_306 (or .def_302 .def_305)))
(let ((.def_311 (and .def_306 .def_310)))
(let ((.def_288 (<= 0.0 .def_287)))
(let ((.def_289 (not .def_288)))
(let ((.def_312 (or .def_289 .def_311)))
(let ((.def_271 (not .def_270)))
(let ((.def_282 (or .def_271 .def_281)))
(let ((.def_313 (and .def_282 .def_312)))
(let ((.def_314 (or .def_268 .def_313)))
(let ((.def_32 (not b.counter.0__AT0)))
(let ((.def_30 (not b.counter.1__AT0)))
(let ((.def_33 (and .def_30 .def_32)))
(let ((.def_263 (or .def_33 b.counter.3__AT0)))
(let ((.def_38 (not b.counter.3__AT0)))
(let ((.def_35 (not b.counter.2__AT0)))
(let ((.def_36 (and .def_33 .def_35)))
(let ((.def_262 (or .def_36 .def_38)))
(let ((.def_264 (and .def_262 .def_263)))
(let ((.def_259 (and .def_61 .def_258)))
(let ((.def_256 (or .def_253 .def_255)))
(let ((.def_246 (or .def_133 .def_145)))
(let ((.def_250 (or b.counter.3__AT1 .def_246)))
(let ((.def_247 (or b.counter.2__AT1 .def_246)))
(let ((.def_245 (or .def_140 .def_145)))
(let ((.def_248 (and .def_245 .def_247)))
(let ((.def_249 (or .def_155 .def_248)))
(let ((.def_251 (and .def_249 .def_250)))
(let ((.def_257 (and .def_251 .def_256)))
(let ((.def_260 (and .def_257 .def_259)))
(let ((.def_70 (<= 0.0 b.delta__AT0)))
(let ((.def_51 (not b.EVENT.0__AT0)))
(let ((.def_49 (not b.EVENT.1__AT0)))
(let ((.def_67 (and .def_49 .def_51)))
(let ((.def_68 (not .def_67)))
(let ((.def_241 (or .def_68 .def_70)))
(let ((.def_242 (or b.EVENT.1__AT0 .def_241)))
(let ((.def_177 (= b.counter.0__AT0 b.counter.0__AT1)))
(let ((.def_175 (= b.counter.1__AT0 b.counter.1__AT1)))
(let ((.def_173 (= b.counter.2__AT0 b.counter.2__AT1)))
(let ((.def_172 (= b.counter.3__AT0 b.counter.3__AT1)))
(let ((.def_174 (and .def_172 .def_173)))
(let ((.def_176 (and .def_174 .def_175)))
(let ((.def_178 (and .def_176 .def_177)))
(let ((.def_238 (or .def_68 .def_178)))
(let ((.def_239 (or b.EVENT.1__AT0 .def_238)))
(let ((.def_230 (* (- 5.0) b.speed_y__AT1)))
(let ((.def_97 (* (- 49.0) b.delta__AT0)))
(let ((.def_231 (+ .def_97 .def_230)))
(let ((.def_86 (* 5.0 b.speed_y__AT0)))
(let ((.def_232 (+ .def_86 .def_231)))
(let ((.def_233 (= .def_232 0.0 )))
(let ((.def_219 (* b.speed_y__AT0 b.delta__AT0)))
(let ((.def_220 (* 10.0 .def_219)))
(let ((.def_217 (* b.delta__AT0 b.delta__AT0)))
(let ((.def_218 (* (- 49.0) .def_217)))
(let ((.def_221 (+ .def_218 .def_220)))
(let ((.def_223 (* (- 10.0) b.y__AT1)))
(let ((.def_226 (+ .def_223 .def_221)))
(let ((.def_80 (* 10.0 b.y__AT0)))
(let ((.def_227 (+ .def_80 .def_226)))
(let ((.def_228 (= .def_227 0.0 )))
(let ((.def_234 (and .def_228 .def_233)))
(let ((.def_235 (or .def_68 .def_234)))
(let ((.def_183 (= b.y__AT0 b.y__AT1)))
(let ((.def_171 (= b.speed_y__AT0 b.speed_y__AT1)))
(let ((.def_214 (and .def_171 .def_183)))
(let ((.def_211 (= b.delta__AT0 0.0 )))
(let ((.def_212 (and .def_67 .def_211)))
(let ((.def_213 (not .def_212)))
(let ((.def_215 (or .def_213 .def_214)))
(let ((.def_216 (or b.EVENT.1__AT0 .def_215)))
(let ((.def_236 (and .def_216 .def_235)))
(let ((.def_193 (= b.time__AT0 b.time__AT1)))
(let ((.def_205 (and .def_183 .def_193)))
(let ((.def_206 (and .def_171 .def_205)))
(let ((.def_207 (and .def_178 .def_206)))
(let ((.def_208 (or .def_49 .def_207)))
(let ((.def_196 (* (- 1.0) b.time__AT1)))
(let ((.def_199 (+ b.delta__AT0 .def_196)))
(let ((.def_200 (+ b.time__AT0 .def_199)))
(let ((.def_201 (= .def_200 0.0 )))
(let ((.def_202 (or .def_68 .def_201)))
(let ((.def_203 (or b.EVENT.1__AT0 .def_202)))
(let ((.def_194 (or .def_67 .def_193)))
(let ((.def_195 (or b.EVENT.1__AT0 .def_194)))
(let ((.def_204 (and .def_195 .def_203)))
(let ((.def_209 (and .def_204 .def_208)))
(let ((.def_189 (= .def_68 b.event_is_timed__AT1)))
(let ((.def_187 (= b.event_is_timed__AT0 .def_67)))
(let ((.def_190 (and .def_187 .def_189)))
(let ((.def_179 (and .def_171 .def_178)))
(let ((.def_122 (<= 0.0 b.speed_y__AT0)))
(let ((.def_123 (not .def_122)))
(let ((.def_121 (= b.y__AT0 0.0 )))
(let ((.def_124 (and .def_121 .def_123)))
(let ((.def_180 (or .def_124 .def_179)))
(let ((.def_146 (or b.counter.0__AT0 .def_145)))
(let ((.def_144 (or .def_32 b.counter.0__AT1)))
(let ((.def_147 (and .def_144 .def_146)))
(let ((.def_148 (and .def_133 .def_147)))
(let ((.def_149 (or b.counter.1__AT0 .def_148)))
(let ((.def_143 (or .def_30 b.counter.1__AT1)))
(let ((.def_150 (and .def_143 .def_149)))
(let ((.def_163 (and .def_140 .def_150)))
(let ((.def_164 (or b.counter.2__AT0 .def_163)))
(let ((.def_158 (and .def_32 .def_133)))
(let ((.def_159 (or b.counter.1__AT0 .def_158)))
(let ((.def_160 (and .def_143 .def_159)))
(let ((.def_161 (and b.counter.2__AT1 .def_160)))
(let ((.def_162 (or .def_35 .def_161)))
(let ((.def_165 (and .def_162 .def_164)))
(let ((.def_166 (and b.counter.3__AT1 .def_165)))
(let ((.def_167 (or b.counter.3__AT0 .def_166)))
(let ((.def_151 (and b.counter.2__AT1 .def_150)))
(let ((.def_152 (or b.counter.2__AT0 .def_151)))
(let ((.def_137 (or b.counter.1__AT0 b.counter.1__AT1)))
(let ((.def_135 (and .def_133 b.counter.0__AT1)))
(let ((.def_136 (or .def_30 .def_135)))
(let ((.def_138 (and .def_136 .def_137)))
(let ((.def_141 (and .def_138 .def_140)))
(let ((.def_142 (or .def_35 .def_141)))
(let ((.def_153 (and .def_142 .def_152)))
(let ((.def_156 (and .def_153 .def_155)))
(let ((.def_157 (or .def_38 .def_156)))
(let ((.def_168 (and .def_157 .def_167)))
(let ((.def_126 (* (- 1.0) b.speed_y__AT0)))
(let ((.def_129 (* .def_126 .def_128)))
(let ((.def_131 (= .def_129 b.speed_y__AT1)))
(let ((.def_169 (and .def_131 .def_168)))
(let ((.def_125 (not .def_124)))
(let ((.def_170 (or .def_125 .def_169)))
(let ((.def_181 (and .def_170 .def_180)))
(let ((.def_184 (and .def_181 .def_183)))
(let ((.def_185 (or .def_67 .def_184)))
(let ((.def_186 (or b.EVENT.1__AT0 .def_185)))
(let ((.def_191 (and .def_186 .def_190)))
(let ((.def_210 (and .def_191 .def_209)))
(let ((.def_237 (and .def_210 .def_236)))
(let ((.def_240 (and .def_237 .def_239)))
(let ((.def_243 (and .def_240 .def_242)))
(let ((.def_244 (and .def_49 .def_243)))
(let ((.def_261 (and .def_244 .def_260)))
(let ((.def_265 (and .def_261 .def_264)))
(let ((.def_75 (* 49.0 b.delta__AT0)))
(let ((.def_76 (* b.delta__AT0 .def_75)))
(let ((.def_78 (* (- 1.0) .def_76)))
(let ((.def_72 (* 10.0 b.speed_y__AT0)))
(let ((.def_73 (* b.delta__AT0 .def_72)))
(let ((.def_79 (+ .def_73 .def_78)))
(let ((.def_82 (+ .def_80 .def_79)))
(let ((.def_83 (<= 0.0 .def_82)))
(let ((.def_113 (not .def_83)))
(let ((.def_98 (+ .def_86 .def_97)))
(let ((.def_99 (<= 0.0 .def_98)))
(let ((.def_114 (and .def_99 .def_113)))
(let ((.def_109 (<= b.speed_y__AT0 0.0 )))
(let ((.def_62 (<= 0.0 b.y__AT0)))
(let ((.def_112 (or .def_62 .def_109)))
(let ((.def_115 (or .def_112 .def_114)))
(let ((.def_108 (<= b.y__AT0 0.0 )))
(let ((.def_110 (and .def_108 .def_109)))
(let ((.def_103 (<= .def_98 0.0 )))
(let ((.def_104 (not .def_103)))
(let ((.def_101 (= .def_82 0.0 )))
(let ((.def_102 (not .def_101)))
(let ((.def_105 (or .def_102 .def_104)))
(let ((.def_100 (or .def_83 .def_99)))
(let ((.def_106 (and .def_100 .def_105)))
(let ((.def_87 (* b.speed_y__AT0 .def_86)))
(let ((.def_89 (* 98.0 b.y__AT0)))
(let ((.def_91 (+ .def_89 .def_87)))
(let ((.def_94 (<= .def_91 0.0 )))
(let ((.def_95 (not .def_94)))
(let ((.def_107 (or .def_95 .def_106)))
(let ((.def_111 (or .def_107 .def_110)))
(let ((.def_116 (and .def_111 .def_115)))
(let ((.def_92 (<= 0.0 .def_91)))
(let ((.def_93 (not .def_92)))
(let ((.def_117 (or .def_93 .def_116)))
(let ((.def_71 (not .def_70)))
(let ((.def_84 (or .def_71 .def_83)))
(let ((.def_118 (and .def_84 .def_117)))
(let ((.def_119 (or .def_68 .def_118)))
(let ((.def_63 (and .def_61 .def_62)))
(let ((.def_52 (or .def_49 .def_51)))
(let ((.def_42 (or .def_30 .def_32)))
(let ((.def_46 (or b.counter.3__AT0 .def_42)))
(let ((.def_43 (or b.counter.2__AT0 .def_42)))
(let ((.def_41 (or .def_32 .def_35)))
(let ((.def_44 (and .def_41 .def_43)))
(let ((.def_45 (or .def_38 .def_44)))
(let ((.def_47 (and .def_45 .def_46)))
(let ((.def_53 (and .def_47 .def_52)))
(let ((.def_64 (and .def_53 .def_63)))
(let ((.def_39 (and .def_36 .def_38)))
(let ((.def_27 (= b.speed_y__AT0 0.0 )))
(let ((.def_24 (= b.y__AT0 10.0 )))
(let ((.def_19 (= b.time__AT0 0.0 )))
(let ((.def_21 (and .def_19 b.event_is_timed__AT0)))
(let ((.def_25 (and .def_21 .def_24)))
(let ((.def_28 (and .def_25 .def_27)))
(let ((.def_40 (and .def_28 .def_39)))
(let ((.def_65 (and .def_40 .def_64)))
(let ((.def_7 (and .def_4 .def_6)))
(let ((.def_14 (or .def_7 b.counter.3__AT2)))
(let ((.def_10 (and .def_7 .def_9)))
(let ((.def_13 (or .def_10 .def_12)))
(let ((.def_15 (and .def_13 .def_14)))
(let ((.def_16 (not .def_15)))
(let ((.def_66 (and .def_16 .def_65)))
(let ((.def_120 (and .def_66 .def_119)))
(let ((.def_266 (and .def_120 .def_265)))
(let ((.def_315 (and .def_266 .def_314)))
(let ((.def_451 (and .def_315 .def_450)))
(let ((.def_500 (and .def_451 .def_499)))
.def_500))))))))))))))))))))))))))))))))))))))))))))))))))))))))))))))))))))))))))))))))))))))))))))))))))))))))))))))))))))))))))))))))))))))))))))))))))))))))))))))))))))))))))))))))))))))))))))))))))))))))))))))))))))))))))))))))))))))))))))))))))))))))))))))))))))))))))))))))))))))))))))))))))))))))))))))))))))))))))))))))))))))))))))))))))))))))))))))))))))))))))))))))))))))))))))))))))))))))))))))))))))))))))))))))))))))))))))))))))))))
(check-sat)
(exit)
